%BLOCK LATTICE_CART
3.06315384 -1.41664193687138e-009 -1.02112648413154e-007 
0 5.75042792327473 1.77965459422918 
6.36887482812275e-007 -5.93821906169843 19.1876001206308 
%ENDBLOCK LATTICE_CART

%BLOCK POSITIONS_ABS
Fe 1.531577081254698  1.3717054720873099  0.4245182594348772 
Fe 1.5315770812546972  1.3717054720873079  5.7479702194348965 
Fe 1.6125469574335958e-07  1.3717054727956355  3.0862442904912033 
Cu 1.531577081254696  4.246919433724673  3.976071536549467 
Cu 1.6125469574335998e-07  -1.5035084888417354  4.858142973376631 
Cu 1.612546957433599e-07  4.2469194344329955  1.3143456076057913 
O 1.5315770812546952  2.3992264359855797  3.9757481088770747 
O 1.6125469574335998e-07  2.3995024572342176  1.3139798405068803 
O 1.531577081254697  0.3441845081890419  2.196740369992685 
O 1.6125469574335964e-07  0.3439084883570458  4.858508740475531 
%ENDBLOCK POSITIONS_ABS

symmetry_generate

! Kpoint grid for the Groundstate (SCF) calculation
kpoint_mp_grid 1 1 1

%block species_pot
Cu Cu_C19_RPBE_OTF.usp
Fe Fe_C19_RPBE_OTF.usp
O  O_C19_RPBE_OTF.usp
C  C_C19_RPBE_OTF.usp
%endblock species_pot
